##TITLE=Ethane, 1,1,2-trichloro-1,2,2-trifluoro-
##JCAMP-DX=4.24
##DATA TYPE=INFRARED SPECTRUM
##ORIGIN=Sadtler Research Labs Under US-EPA Contract
##OWNER=NIST Standard Reference Data Program
Collection (C) 2018 copyright by the U.S. Secretary of Commerce
on behalf of the United States of America. All rights reserved.
##CAS REGISTRY NO=76-13-1
##MOLFORM=C 2 Cl 3 F 3
##$NIST SOURCE=MSDC-IR
##STATE=gas
##XUNITS=1/CM
##YUNITS=ABSORBANCE
##XFACTOR=1.0
##YFACTOR=0.000107706
##DELTAX=4.0
##FIRSTX=450.0
##LASTX=3966.0
##FIRSTY=0.005170
##MAXX=3966
##MINX=450
##MAXY=1.07706
##MINY=0
##NPOINTS=260
##XYDATA=(X++(Y..Y))
450.0 48 73 66 88 87 56 8 12 2 14
490.0 26 37 77 90 77 63 72 75 117 156
530.0 176 184 164 115 35 12 16 20 37 18
570.0 34 38 37 18 32 23 36 34 38 47
610.0 45 42 80 126 195 266 326 289 348 381
650.0 442 505 433 348 189 76 57 43 27 37
690.0 35 37 31 35 41 41 39 36 44 52
730.0 56 56 55 60 59 58 57 54 68 83
770.0 141 224 337 442 608 908 1581 2876 4835 7212
810.0 9015 10000 8892 6495 3421 1551 897 713 619 585
850.0 593 637 754 949 1274 1673 2149 2637 3150 3510
890.0 4092 4898 5704 6585 7139 7085 6224 4865 3675 2634
930.0 1857 1213 743 387 232 186 179 184 208 234
970.0 256 260 249 221 185 156 143 156 190 236
1010.0 304 436 705 1235 2083 3162 4428 5685 5914 5561
1050.0 4898 3617 2513 1459 780 503 429 413 493 664
1090.0 940 1375 2074 3201 4723 6142 7127 7584 4773 3483
1130.0 1749 651 342 340 466 715 1246 2145 3393 4931
1170.0 6417 7166 8049 6539 5850 4687 3688 3770 4135 4537
1210.0 4508 3726 2586 1590 765 318 176 156 162 171
1250.0 172 162 147 128 115 98 89 80 71 62
1290.0 56 52 49 49 46 44 45 49 53 61
1330.0 74 87 105 115 114 108 98 93 92 96
1370.0 103 111 111 100 89 76 68 69 67 70
1410.0 73 66 60 45 38 25 25 17 20 19
1450.0 21 26 21 32 26 29 27 29 24 27

##END=
